HUN,8,6,864
1,52,0,64,4,94,2,47,5,83,3,20
0,75,1,24,4,65,3,79,5,6,2,8
0,71,5,75,3,43,2,46,1,53,4,52
0,36,3,15,2,31,4,44,1,57,5,25
5,22,0,33,1,44,2,9,3,21,4,83
1,47,5,85,4,84,3,56,2,9,0,89
5,80,0,78,2,64,1,18,4,79,3,82
5,58,3,97,2,8,4,89,1,50,0,15
